p cnf 7 27
1 -6 0
-5 -4 -3 0
-7 -3 -1 0
-6 0
2 3 0
-7 2 -5 -2 0
-7 -3 0
-6 -5 7 0
-2 -1 0
-6 2 5 0
-5 -3 6 0
4 -3 0
-2 7 0
-6 -1 -2 0
2 -5 4 -4 0
3 7 0
2 0
5 6 -2 0
4 0
3 -5 0
-6 -5 5 6 0
6 0
1 3 -2 0
3 0
-5 -3 6 0
7 0
4 0
